40
1 0 71
2 0 73
2 1 75
3 0 19
3 1 50
3 2 89
4 0 53
4 1 52
4 2 64
4 3 31
5 0 54
5 1 44
5 2 98
5 3 18
5 4 10
6 0 94
6 1 90
6 2 62
6 3 77
6 4 5
6 5 25
7 0 96
7 1 83
7 2 98
7 3 72
7 4 8
7 5 7
7 6 67
8 0 74
8 1 59
8 2 53
8 3 94
8 4 91
8 5 94
8 6 84
8 7 100
9 0 54
9 1 58
9 2 26
9 3 15
9 4 88
9 5 67
9 6 84
9 7 74
9 8 93
10 0 18
10 1 6
10 2 83
10 3 20
10 4 24
10 5 88
10 6 10
10 7 58
10 8 1
10 9 23
11 0 84
11 1 19
11 2 71
11 3 19
11 4 28
11 5 11
11 6 23
11 7 45
11 8 46
11 9 2
11 10 69
12 0 87
12 1 34
12 2 41
12 3 84
12 4 19
12 5 3
12 6 81
12 7 7
12 8 8
12 9 11
12 10 14
12 11 55
13 0 24
13 1 68
13 2 26
13 3 64
13 4 27
13 5 43
13 6 12
13 7 73
13 8 37
13 9 84
13 10 33
13 11 1
13 12 14
14 0 51
14 1 90
14 2 94
14 3 11
14 4 95
14 5 43
14 6 36
14 7 71
14 8 61
14 9 16
14 10 54
14 11 81
14 12 80
14 13 55
15 0 57
15 1 3
15 2 76
15 3 32
15 4 91
15 5 57
15 6 19
15 7 6
15 8 8
15 9 4
15 10 88
15 11 99
15 12 67
15 13 68
15 14 24
16 0 36
16 1 20
16 2 5
16 3 93
16 4 60
16 5 60
16 6 82
16 7 90
16 8 20
16 9 19
16 10 44
16 11 43
16 12 93
16 13 56
16 14 77
16 15 14
17 0 93
17 1 66
17 2 93
17 3 97
17 4 74
17 5 1
17 6 94
17 7 48
17 8 27
17 9 84
17 10 99
17 11 24
17 12 32
17 13 60
17 14 30
17 15 2
17 16 16
18 0 14
18 1 97
18 2 92
18 3 23
18 4 41
18 5 27
18 6 88
18 7 6
18 8 62
18 9 30
18 10 8
18 11 84
18 12 15
18 13 91
18 14 20
18 15 34
18 16 66
18 17 36
19 0 54
19 1 12
19 2 8
19 3 9
19 4 44
19 5 11
19 6 62
19 7 52
19 8 63
19 9 19
19 10 89
19 11 97
19 12 31
19 13 14
19 14 70
19 15 78
19 16 4
19 17 20
19 18 24
20 0 48
20 1 98
20 2 23
20 3 69
20 4 57
20 5 92
20 6 90
20 7 38
20 8 8
20 9 97
20 10 70
20 11 9
20 12 22
20 13 16
20 14 55
20 15 26
20 16 52
20 17 19
20 18 30
20 19 95
21 0 54
21 1 97
21 2 52
21 3 89
21 4 90
21 5 81
21 6 18
21 7 16
21 8 9
21 9 46
21 10 26
21 11 10
21 12 68
21 13 20
21 14 38
21 15 52
21 16 50
21 17 74
21 18 93
21 19 50
21 20 9
22 0 69
22 1 34
22 2 12
22 3 56
22 4 85
22 5 41
22 6 100
22 7 43
22 8 47
22 9 94
22 10 59
22 11 37
22 12 29
22 13 99
22 14 39
22 15 70
22 16 19
22 17 53
22 18 68
22 19 14
22 20 40
22 21 37
23 0 48
23 1 22
23 2 86
23 3 50
23 4 64
23 5 20
23 6 21
23 7 42
23 8 41
23 9 59
23 10 31
23 11 88
23 12 96
23 13 54
23 14 35
23 15 24
23 16 46
23 17 57
23 18 2
23 19 41
23 20 95
23 21 62
23 22 26
24 0 91
24 1 96
24 2 30
24 3 50
24 4 70
24 5 62
24 6 73
24 7 47
24 8 63
24 9 80
24 10 51
24 11 99
24 12 86
24 13 41
24 14 55
24 15 30
24 16 50
24 17 1
24 18 1
24 19 83
24 20 19
24 21 25
24 22 32
24 23 52
25 0 66
25 1 92
25 2 19
25 3 3
25 4 29
25 5 48
25 6 17
25 7 47
25 8 18
25 9 43
25 10 84
25 11 54
25 12 37
25 13 1
25 14 10
25 15 12
25 16 18
25 17 81
25 18 86
25 19 76
25 20 86
25 21 47
25 22 12
25 23 62
25 24 80
26 0 62
26 1 41
26 2 73
26 3 25
26 4 51
26 5 95
26 6 75
26 7 31
26 8 19
26 9 94
26 10 51
26 11 29
26 12 8
26 13 99
26 14 93
26 15 15
26 16 24
26 17 57
26 18 33
26 19 30
26 20 94
26 21 85
26 22 6
26 23 11
26 24 99
26 25 46
27 0 90
27 1 95
27 2 11
27 3 3
27 4 89
27 5 37
27 6 40
27 7 46
27 8 39
27 9 9
27 10 49
27 11 30
27 12 39
27 13 69
27 14 2
27 15 74
27 16 72
27 17 11
27 18 51
27 19 12
27 20 43
27 21 54
27 22 87
27 23 77
27 24 47
27 25 26
27 26 95
28 0 84
28 1 60
28 2 35
28 3 95
28 4 24
28 5 4
28 6 56
28 7 66
28 8 94
28 9 34
28 10 59
28 11 75
28 12 29
28 13 47
28 14 67
28 15 62
28 16 94
28 17 11
28 18 14
28 19 49
28 20 75
28 21 56
28 22 36
28 23 82
28 24 51
28 25 96
28 26 38
28 27 24
29 0 66
29 1 55
29 2 89
29 3 45
29 4 9
29 5 14
29 6 59
29 7 84
29 8 77
29 9 19
29 10 98
29 11 95
29 12 85
29 13 8
29 14 9
29 15 73
29 16 41
29 17 37
29 18 81
29 19 40
29 20 10
29 21 34
29 22 69
29 23 42
29 24 21
29 25 98
29 26 50
29 27 69
29 28 98
30 0 11
30 1 85
30 2 12
30 3 27
30 4 57
30 5 63
30 6 11
30 7 73
30 8 51
30 9 17
30 10 78
30 11 21
30 12 12
30 13 28
30 14 66
30 15 11
30 16 52
30 17 61
30 18 41
30 19 63
30 20 54
30 21 5
30 22 79
30 23 50
30 24 69
30 25 98
30 26 82
30 27 39
30 28 40
30 29 69
31 0 92
31 1 11
31 2 48
31 3 25
31 4 52
31 5 39
31 6 35
31 7 65
31 8 32
31 9 82
31 10 42
31 11 4
31 12 23
31 13 18
31 14 75
31 15 22
31 16 78
31 17 24
31 18 80
31 19 96
31 20 36
31 21 95
31 22 100
31 23 63
31 24 66
31 25 31
31 26 30
31 27 20
31 28 21
31 29 50
31 30 11
32 0 75
32 1 77
32 2 12
32 3 9
32 4 86
32 5 14
32 6 48
32 7 91
32 8 71
32 9 51
32 10 36
32 11 82
32 12 57
32 13 40
32 14 66
32 15 55
32 16 14
32 17 95
32 18 90
32 19 18
32 20 89
32 21 98
32 22 48
32 23 65
32 24 33
32 25 16
32 26 3
32 27 32
32 28 95
32 29 10
32 30 54
32 31 64
33 0 2
33 1 39
33 2 81
33 3 78
33 4 89
33 5 72
33 6 52
33 7 90
33 8 10
33 9 64
33 10 11
33 11 36
33 12 57
33 13 70
33 14 94
33 15 1
33 16 88
33 17 94
33 18 77
33 19 43
33 20 1
33 21 97
33 22 32
33 23 73
33 24 42
33 25 11
33 26 44
33 27 23
33 28 15
33 29 38
33 30 28
33 31 24
33 32 32
34 0 24
34 1 46
34 2 62
34 3 33
34 4 48
34 5 98
34 6 2
34 7 52
34 8 53
34 9 54
34 10 76
34 11 9
34 12 8
34 13 48
34 14 96
34 15 68
34 16 100
34 17 45
34 18 27
34 19 71
34 20 69
34 21 52
34 22 22
34 23 53
34 24 48
34 25 43
34 26 34
34 27 100
34 28 69
34 29 12
34 30 22
34 31 79
34 32 48
34 33 72
35 0 33
35 1 92
35 2 54
35 3 68
35 4 37
35 5 2
35 6 34
35 7 72
35 8 24
35 9 41
35 10 50
35 11 85
35 12 5
35 13 8
35 14 29
35 15 36
35 16 75
35 17 2
35 18 58
35 19 92
35 20 24
35 21 59
35 22 70
35 23 98
35 24 12
35 25 81
35 26 89
35 27 1
35 28 37
35 29 85
35 30 37
35 31 52
35 32 63
35 33 99
35 34 27
36 0 72
36 1 91
36 2 88
36 3 94
36 4 26
36 5 88
36 6 88
36 7 30
36 8 60
36 9 9
36 10 86
36 11 28
36 12 68
36 13 66
36 14 58
36 15 57
36 16 10
36 17 43
36 18 70
36 19 15
36 20 2
36 21 65
36 22 98
36 23 40
36 24 35
36 25 42
36 26 9
36 27 69
36 28 2
36 29 73
36 30 44
36 31 75
36 32 39
36 33 86
36 34 52
36 35 28
37 0 16
37 1 10
37 2 89
37 3 59
37 4 20
37 5 52
37 6 88
37 7 17
37 8 23
37 9 94
37 10 50
37 11 49
37 12 27
37 13 42
37 14 9
37 15 51
37 16 37
37 17 100
37 18 83
37 19 65
37 20 91
37 21 35
37 22 17
37 23 16
37 24 42
37 25 68
37 26 58
37 27 16
37 28 5
37 29 7
37 30 42
37 31 88
37 32 75
37 33 100
37 34 71
37 35 71
37 36 95
38 0 76
38 1 7
38 2 28
38 3 37
38 4 11
38 5 27
38 6 46
38 7 19
38 8 16
38 9 96
38 10 19
38 11 62
38 12 67
38 13 58
38 14 47
38 15 70
38 16 88
38 17 71
38 18 80
38 19 98
38 20 78
38 21 7
38 22 19
38 23 8
38 24 47
38 25 1
38 26 15
38 27 61
38 28 80
38 29 45
38 30 60
38 31 83
38 32 68
38 33 26
38 34 45
38 35 95
38 36 61
38 37 70
39 0 34
39 1 6
39 2 39
39 3 43
39 4 74
39 5 3
39 6 94
39 7 21
39 8 49
39 9 94
39 10 85
39 11 26
39 12 39
39 13 83
39 14 1
39 15 81
39 16 42
39 17 72
39 18 45
39 19 58
39 20 87
39 21 43
39 22 22
39 23 95
39 24 19
39 25 49
39 26 92
39 27 14
39 28 48
39 29 15
39 30 30
39 31 78
39 32 5
39 33 43
39 34 1
39 35 45
39 36 26
39 37 47
39 38 35
